param set_len = 28;
param target_sum = 8933587108;
param values := [1] 1015942883 [2] 749799771 [3] 473638213 [4] 958065623 [5] 842470396 [6] 569540598 [7] 605833403 [8] 644843972 [9] 609723862 [10] 277688924 [11] 906917238 [12] 845697570 [13] 343831110 [14] 776083582 [15] 722364413 [16] 942733737 [17] 538120027 [18] 187067300 [19] 929512405 [20] 877225743 [21] 72227728 [22] 474111209 [23] 1068329406 [24] 861565948 [25] 807956742 [26] 1010381124 [27] 200705892 [28] 1010433459 ;
